
Gurobi 6.5.2 (mac64) logging started Tue Aug  2 10:33:40 2016


Gurobi 6.5.2 (mac64) logging started Tue Aug  2 10:36:47 2016

Read LP format model from file /Library/gurobi652/mac64/examples/data/coins.lp
Reading time = 0.00 seconds
(null): 4 rows, 9 columns, 16 nonzeros

Gurobi 6.5.2 (mac64) logging started Tue Aug  2 10:37:03 2016

Read LP format model from file /Library/gurobi652/mac64/examples/data/coins.lp
Reading time = 0.00 seconds
(null): 4 rows, 9 columns, 16 nonzeros
Optimize a model with 4 rows, 9 columns and 16 nonzeros
Coefficient statistics:
  Matrix range    [6e-02, 7e+00]
  Objective range [1e-02, 1e+00]
  Bounds range    [5e+01, 1e+03]
  RHS range       [0e+00, 0e+00]
Found heuristic solution: objective -0
Presolve removed 1 rows and 5 columns
Presolve time: 0.01s
Presolved: 3 rows, 4 columns, 9 nonzeros
Variable types: 0 continuous, 4 integer (0 binary)

Root relaxation: objective 1.134615e+02, 4 iterations, 0.00 seconds

    Nodes    |    Current Node    |     Objective Bounds      |     Work
 Expl Unexpl |  Obj  Depth IntInf | Incumbent    BestBd   Gap | It/Node Time

     0     0  113.46154    0    1   -0.00000  113.46154      -     -    0s
H    0     0                     113.4500000  113.46154  0.01%     -    0s

Explored 0 nodes (4 simplex iterations) in 0.01 seconds
Thread count was 8 (of 8 available processors)

Optimal solution found (tolerance 1.00e-04)
Best objective 1.134500000000e+02, best bound 1.134500000000e+02, gap 0.0%

Gurobi 6.5.2 (mac64) logging started Tue Aug  2 10:38:58 2016

Read LP format model from file /Library/gurobi652/mac64/examples/data/coins.lp
Reading time = 0.00 seconds
(null): 4 rows, 9 columns, 16 nonzeros
Optimize a model with 4 rows, 9 columns and 16 nonzeros
Coefficient statistics:
  Matrix range    [6e-02, 7e+00]
  Objective range [1e-02, 1e+00]
  Bounds range    [5e+01, 1e+03]
  RHS range       [0e+00, 0e+00]
Found heuristic solution: objective -0
Presolve removed 1 rows and 5 columns
Presolve time: 0.01s
Presolved: 3 rows, 4 columns, 9 nonzeros
Variable types: 0 continuous, 4 integer (0 binary)

Root relaxation: objective 1.134615e+02, 4 iterations, 0.00 seconds

    Nodes    |    Current Node    |     Objective Bounds      |     Work
 Expl Unexpl |  Obj  Depth IntInf | Incumbent    BestBd   Gap | It/Node Time

     0     0  113.46154    0    1   -0.00000  113.46154      -     -    0s
H    0     0                     113.4500000  113.46154  0.01%     -    0s

Explored 0 nodes (4 simplex iterations) in 0.02 seconds
Thread count was 8 (of 8 available processors)

Optimal solution found (tolerance 1.00e-04)
Best objective 1.134500000000e+02, best bound 1.134500000000e+02, gap 0.0%

Gurobi 6.5.2 (mac64) logging started Tue Aug  2 10:39:09 2016

Read LP format model from file /Library/gurobi652/mac64/examples/data/coins.lp
Reading time = 0.00 seconds
(null): 4 rows, 9 columns, 16 nonzeros
Optimize a model with 4 rows, 9 columns and 16 nonzeros
Coefficient statistics:
  Matrix range    [6e-02, 7e+00]
  Objective range [1e-02, 1e+00]
  Bounds range    [5e+01, 1e+03]
  RHS range       [0e+00, 0e+00]
Found heuristic solution: objective -0
Presolve removed 1 rows and 5 columns
Presolve time: 0.00s
Presolved: 3 rows, 4 columns, 9 nonzeros
Variable types: 0 continuous, 4 integer (0 binary)

Root relaxation: objective 1.134615e+02, 4 iterations, 0.00 seconds

    Nodes    |    Current Node    |     Objective Bounds      |     Work
 Expl Unexpl |  Obj  Depth IntInf | Incumbent    BestBd   Gap | It/Node Time

     0     0  113.46154    0    1   -0.00000  113.46154      -     -    0s
H    0     0                     113.4500000  113.46154  0.01%     -    0s

Explored 0 nodes (4 simplex iterations) in 0.00 seconds
Thread count was 8 (of 8 available processors)

Optimal solution found (tolerance 1.00e-04)
Best objective 1.134500000000e+02, best bound 1.134500000000e+02, gap 0.0%

    Variable            x 
-------------------------
       Dimes            2 
    Quarters           53 
     Dollars          100 
          Cu        999.8 
          Ni         46.9 
          Zi           50 
          Mn           30 
